column=8;
row=8;
Board=[|0,0,0,0,6,0,0,4|1,0,0,0,2,0,7,0|0,2,0,0,5,0,8,0|0,0,0,0,8,0,5,0|0,0,5,2,0,0,0,8|0,6,2,8,0,0,0,0|0,0,0,0,7,0,1,0|0,5,0,0,0,0,0,1|];
horizontal=[|1,2,0,0,1,0,0|0,0,1,2,0,1,0|0,0,2,0,1,1,0|0,1,1,0,0,2,2|2,1,0,1,0,0,0|0,2,0,0,1,0,0|0,1,2,0,0,0,0|0,1,1,0,0,0,0|];
vertical=[|2,0,1,0,0,2,1,1|0,0,0,0,0,1,0,2|1,0,0,0,1,1,0,0|1,1,0,0,2,0,0,1|0,0,0,0,2,1,0,0|0,0,1,0,1,2,0,2|1,1,2,1,0,1,0,0|];
